
Log started (V11.0.0) Sun Apr 13 13:58:54 2008

Tried aggregator 1 time.
Reduced MIP has 230 rows, 6001 columns, and 12030 nonzeros.
Presolve time =    0.03 sec.
Clique table members: 200.
MIP emphasis: balance optimality and feasibility.
MIP search method: dynamic search.
Parallel mode: none, using 1 thread.
Root relaxation solution time =    0.14 sec.

        Nodes                                         Cuts/
   Node  Left     Objective  IInf  Best Integer     Best Node    ItCnt     Gap

*     0+    0                         9839.0000       25.8682      651   99.74%
*     0+    0                           39.0000       25.8682      651   33.67%
      0     0       26.0000    47       39.0000      Fract: 7      669   33.33%
*     0+    0                           36.0000       26.0000      669   27.78%
      0     0       26.0000    46       36.0000   Impl Bds: 1      702   27.78%
*     0+    0                           35.0000       26.0000      702   25.71%
      0     0       26.0000    44       35.0000       Cuts: 2      708   25.71%
*     0+    0                           33.0000       26.0000      708   21.21%
*     0+    0                           32.0000       26.0000      708   18.75%

Repeating presolve.
Tried aggregator 1 time.
MIP Presolve eliminated 0 rows and 4164 columns.
Reduced MIP has 230 rows, 1837 columns, and 3702 nonzeros.
Tried aggregator 1 time.
Represolve time =    0.08 sec.
Clique table members: 537.
MIP emphasis: balance optimality and feasibility.
MIP search method: dynamic search.
Parallel mode: none, using 1 thread.
Root relaxation solution time =    0.05 sec.

        Nodes                                         Cuts/
   Node  Left     Objective  IInf  Best Integer     Best Node    ItCnt     Gap

      0     0       26.0000    55       32.0000       26.0000      438   18.75%
*     0+    0                           31.0000       26.0000      438   16.13%
*     0+    0                           29.0000       26.0000      438   10.34%
      0     2       26.0000    55       29.0000       26.0000      438   10.34%
    100    59    infeasible             29.0000       26.0000     3924   10.34%
*   200+   11                           28.0000       27.0000    11387    3.57%
    200    13       27.0000    80       28.0000       27.0000    11387    3.57%
    300    84    infeasible             28.0000       27.0000    21567    3.57%
    400   112       27.0000   106       28.0000       27.0000    47115    3.57%
    500   142       27.0000    77       28.0000       27.0000    71400    3.57%
    600   143       27.0000    91       28.0000       27.0000    83404    3.57%
    700   102    infeasible             28.0000       27.0000   105497    3.57%
    800    78    infeasible             28.0000       27.0000   136191    3.57%
    900    72    infeasible             28.0000       27.0000   162557    3.57%
   1000    76       27.0000   198       28.0000       27.0000   191020    3.57%
Elapsed time =  42.75 sec. (tree size =  0.64 MB, solutions = 9)
   1100    50       27.0000   156       28.0000       27.0000   219388    3.57%
   1200    28       27.0000   203       28.0000       27.0000   247186    3.57%

Clique cuts applied:  8
Cover cuts applied:  597
Flow cuts applied:  6
Mixed integer rounding cuts applied:  38
Zero-half cuts applied:  6
Gomory fractional cuts applied:  12

Solution pool: 9 solutions saved.

MIP - Integer optimal solution:  Objective = 2.8000000000e+001
Solution time =   62.83 sec.  Iterations = 267623  Nodes = 1279


Incumbent solution
Variable Name           Solution Value
Cmax                         28.000000
X_1_11                        1.000000
X_2_24                        1.000000
X_3_11                        1.000000
X_4_27                        1.000000
X_5_21                        1.000000
X_6_29                        1.000000
X_7_7                         1.000000
X_8_25                        1.000000
X_9_30                        1.000000
X_10_26                       1.000000
X_11_18                       1.000000
X_12_7                        1.000000
X_13_23                       1.000000
X_14_21                       1.000000
X_15_2                        1.000000
X_16_7                        1.000000
X_17_3                        1.000000
X_18_24                       1.000000
X_19_30                       1.000000
X_20_16                       1.000000
X_21_12                       1.000000
X_22_9                        1.000000
X_23_12                       1.000000
X_24_6                        1.000000
X_25_10                       1.000000
X_26_29                       1.000000
X_27_30                       1.000000
X_28_15                       1.000000
X_29_5                        1.000000
X_30_8                        1.000000
X_31_7                        1.000000
X_32_20                       1.000000
X_33_28                       1.000000
X_34_13                       1.000000
X_35_25                       1.000000
X_36_28                       1.000000
X_37_22                       1.000000
X_38_23                       1.000000
X_39_20                       1.000000
X_40_23                       1.000000
X_41_17                       1.000000
X_42_1                        1.000000
X_43_11                       1.000000
X_44_3                        1.000000
X_45_9                        1.000000
X_46_18                       1.000000
X_47_14                       1.000000
X_48_24                       1.000000
X_49_17                       1.000000
X_50_4                        1.000000
X_51_5                        1.000000
X_52_27                       1.000000
X_53_18                       1.000000
X_54_11                       1.000000
X_55_7                        1.000000
X_56_27                       1.000000
X_57_5                        1.000000
X_58_3                        1.000000
X_59_20                       1.000000
X_60_13                       1.000000
X_61_8                        1.000000
X_62_27                       1.000000
X_63_8                        1.000000
X_64_4                        1.000000
X_65_21                       1.000000
X_66_1                        1.000000
X_67_2                        1.000000
X_68_16                       1.000000
X_69_29                       1.000000
X_70_7                        1.000000
X_71_8                        1.000000
X_72_26                       1.000000
X_73_10                       1.000000
X_74_29                       1.000000
X_75_11                       1.000000
X_76_6                        1.000000
X_77_24                       1.000000
X_78_26                       1.000000
X_79_11                       1.000000
X_80_12                       1.000000
X_81_2                        1.000000
X_82_6                        1.000000
X_83_9                        1.000000
X_84_18                       1.000000
X_85_14                       1.000000
X_86_3                        1.000000
X_87_28                       1.000000
X_88_14                       1.000000
X_89_16                       1.000000
X_90_10                       1.000000
X_91_30                       1.000000
X_92_21                       1.000000
X_93_23                       1.000000
X_94_27                       1.000000
X_95_15                       1.000000
X_96_2                        1.000000
X_97_13                       1.000000
X_98_3                        1.000000
X_99_17                       1.000000
X_100_29                      1.000000
X_101_14                      1.000000
X_102_16                      1.000000
X_103_8                       1.000000
X_104_21                      1.000000
X_105_30                      1.000000
X_106_24                      1.000000
X_107_25                      1.000000
X_108_28                      1.000000
X_109_25                      1.000000
X_110_9                       1.000000
X_111_14                      1.000000
X_112_22                      1.000000
X_113_5                       1.000000
X_114_13                      1.000000
X_115_30                      1.000000
X_116_19                      1.000000
X_117_21                      1.000000
X_118_12                      1.000000
X_119_10                      1.000000
X_120_12                      1.000000
X_121_5                       1.000000
X_122_23                      1.000000
X_123_13                      1.000000
X_124_29                      1.000000
X_125_16                      1.000000
X_126_28                      1.000000
X_127_24                      1.000000
X_128_19                      1.000000
X_129_18                      1.000000
X_130_23                      1.000000
X_131_26                      1.000000
X_132_20                      1.000000
X_133_27                      1.000000
X_134_25                      1.000000
X_135_2                       1.000000
X_136_5                       1.000000
X_137_16                      1.000000
X_138_6                       1.000000
X_139_1                       1.000000
X_140_14                      1.000000
X_141_3                       1.000000
X_142_4                       1.000000
X_143_22                      1.000000
X_144_24                      1.000000
X_145_18                      1.000000
X_146_19                      1.000000
X_147_2                       1.000000
X_148_12                      1.000000
X_149_6                       1.000000
X_150_26                      1.000000
X_151_29                      1.000000
X_152_18                      1.000000
X_153_18                      1.000000
X_154_22                      1.000000
X_155_13                      1.000000
X_156_10                      1.000000
X_157_3                       1.000000
X_158_25                      1.000000
X_159_4                       1.000000
X_160_14                      1.000000
X_161_1                       1.000000
X_162_2                       1.000000
X_163_20                      1.000000
X_164_29                      1.000000
X_165_23                      1.000000
X_166_3                       1.000000
X_167_17                      1.000000
X_168_29                      1.000000
X_169_14                      1.000000
X_170_4                       1.000000
X_171_5                       1.000000
X_172_24                      1.000000
X_173_7                       1.000000
X_174_13                      1.000000
X_175_13                      1.000000
X_176_6                       1.000000
X_177_17                      1.000000
X_178_22                      1.000000
X_179_11                      1.000000
X_180_6                       1.000000
X_181_30                      1.000000
X_182_27                      1.000000
X_183_25                      1.000000
X_184_21                      1.000000
X_185_10                      1.000000
X_186_4                       1.000000
X_187_21                      1.000000
X_188_17                      1.000000
X_189_12                      1.000000
X_190_2                       1.000000
X_191_23                      1.000000
X_192_26                      1.000000
X_193_5                       1.000000
X_194_8                       1.000000
X_195_24                      1.000000
X_196_16                      1.000000
X_197_17                      1.000000
X_198_28                      1.000000
X_199_1                       1.000000
X_200_22                      1.000000
All other variables in the range 1-6001 are 0.
